(set-logic HORN)
(declare-datatypes ((Nat_1 0)) (((Z_3 ) (Z_4 (unS_0 Nat_1)))))
(declare-datatypes ((list_0 0)) (((nil_0 ) (cons_0 (head_0 Nat_1) (tail_0 list_0)))))
(declare-datatypes ((Nat_0 0)) (((Z_0 ) (S_0 (projS_0 Nat_0)))))
(declare-fun diseqNat_0 (Nat_0 Nat_0) Bool)
(declare-fun length_0 (Nat_0 list_0) Bool)
(declare-fun x_1 (Nat_0 Nat_0 Nat_0) Bool)
(declare-fun x_3 (list_0 list_0 list_0) Bool)
(declare-fun rev_0 (list_0 list_0) Bool)
(assert (forall ((x_45 Nat_0))
	(diseqNat_0 Z_0 (S_0 x_45))))
(assert (forall ((x_46 Nat_0))
	(diseqNat_0 (S_0 x_46) Z_0)))
(assert (forall ((x_47 Nat_0) (x_48 Nat_0))
	(=> (diseqNat_0 x_47 x_48) (diseqNat_0 (S_0 x_47) (S_0 x_48)))))
(assert (forall ((x_8 Nat_0) (y_0 Nat_1) (xs_0 list_0))
	(=> (length_0 x_8 xs_0) (length_0 (S_0 x_8) (cons_0 y_0 xs_0)))))
(assert (length_0 Z_0 nil_0))
(assert (forall ((x_11 Nat_0) (z_1 Nat_0) (y_1 Nat_0))
	(=> (x_1 x_11 z_1 y_1) (x_1 (S_0 x_11) (S_0 z_1) y_1))))
(assert (forall ((x_12 Nat_0))
	(x_1 x_12 Z_0 x_12)))
(assert (forall ((x_14 list_0) (z_2 Nat_1) (xs_1 list_0) (y_2 list_0))
	(=> (x_3 x_14 xs_1 y_2) (x_3 (cons_0 z_2 x_14) (cons_0 z_2 xs_1) y_2))))
(assert (forall ((x_15 list_0))
	(x_3 x_15 nil_0 x_15)))
(assert (forall ((x_16 list_0) (x_17 list_0) (y_3 Nat_1) (xs_2 list_0))
	(=> (and (rev_0 x_17 xs_2) (x_3 x_16 x_17 (cons_0 y_3 nil_0))) (rev_0 x_16 (cons_0 y_3 xs_2)))))
(assert (rev_0 nil_0 nil_0))
(assert (forall ((x_20 list_0) (x_21 list_0) (x_22 Nat_0) (x_23 Nat_0) (x_24 Nat_0) (x_25 Nat_0) (x_6 list_0) (y_4 list_0))
	(=> (and (diseqNat_0 x_22 x_25) (x_3 x_20 x_6 y_4) (rev_0 x_21 x_20) (length_0 x_22 x_21) (length_0 x_23 x_6) (length_0 x_24 y_4) (x_1 x_25 x_23 x_24)) false)))
(check-sat)
(get-model)
